NAME 
ROWS
 N  OBJ
 L  R0      
 E  R1      
 E  R2      
 E  R3      
 E  R4      
 E  R5      
 E  R6      
 E  R7      
 E  R8      
 E  R9      
 E  R10     
 E  R11     
 E  R12     
 E  R13     
 E  R14     
 E  R15     
COLUMNS
    MARKER    'MARKER'                 'INTORG'
    I0(4)     OBJ       -11
    I0(4)     R0        -186
    I0(4)     R1        12
    I0(4)     R6        11
    I0(4)     R15       1
    I1(3)     OBJ       -146
    I1(3)     R0        -179
    I1(3)     R6        15
    I1(3)     R15       1
    I2(5)     OBJ       53
    I2(5)     R0        -194
    I2(5)     R1        15
    I2(5)     R4        10
    I2(5)     R5        16
    I2(5)     R15       1
    I3(4)     OBJ       -132
    I3(4)     R0        189
    I3(4)     R4        19
    I3(4)     R5        17
    I3(4)     R15       1
    I4(4)     OBJ       170
    I4(4)     R0        73
    I4(4)     R2        14
    I4(4)     R6        8
    I4(4)     R15       1
    I5(4)     OBJ       -182
    I5(4)     R0        -164
    I5(4)     R1        14
    I5(4)     R2        1
    I5(4)     R15       1
    MARKER    'MARKER'                 'INTEND'
    C6(10)    OBJ       -5
    C6(10)    R0        -3
    C6(10)    R1        5
    C6(10)    R3        3
    C6(10)    R4        17
    C6(10)    R5        7
    C6(10)    R6        12
    C6(10)    R8        9
    C6(10)    R9        1
    C6(10)    R12       12
    C6(10)    R13       8
    C7(11)    OBJ       -7
    C7(11)    R0        -2
    C7(11)    R1        2
    C7(11)    R2        14
    C7(11)    R3        9
    C7(11)    R7        11
    C7(11)    R8        2
    C7(11)    R9        10
    C7(11)    R10       18
    C7(11)    R12       4
    C7(11)    R13       3
    C7(11)    R14       9
    C8(10)    OBJ       6
    C8(10)    R0        6
    C8(10)    R1        4
    C8(10)    R3        -1
    C8(10)    R5        -1
    C8(10)    R6        14
    C8(10)    R8        11
    C8(10)    R11       4
    C8(10)    R12       16
    C8(10)    R13       7
    C8(10)    R14       14
    C9(7)     OBJ       7
    C9(7)     R0        -2
    C9(7)     R3        1
    C9(7)     R6        8
    C9(7)     R7        18
    C9(7)     R9        3
    C9(7)     R10       3
    C9(7)     R12       11
    C10(11)   OBJ       -1
    C10(11)   R0        2
    C10(11)   R1        3
    C10(11)   R3        19
    C10(11)   R4        3
    C10(11)   R5        8
    C10(11)   R6        1
    C10(11)   R9        8
    C10(11)   R10       19
    C10(11)   R12       3
    C10(11)   R13       1
    C10(11)   R14       11
    C11(6)    OBJ       -3
    C11(6)    R0        9
    C11(6)    R1        7
    C11(6)    R3        2
    C11(6)    R6        3
    C11(6)    R8        17
    C11(6)    R14       17
    C12(7)    OBJ       -9
    C12(7)    R0        -10
    C12(7)    R6        8
    C12(7)    R9        14
    C12(7)    R10       17
    C12(7)    R11       6
    C12(7)    R13       11
    C12(7)    R14       3
    C13(11)   OBJ       -4
    C13(11)   R0        -2
    C13(11)   R2        4
    C13(11)   R3        3
    C13(11)   R4        10
    C13(11)   R5        16
    C13(11)   R6        17
    C13(11)   R7        -1
    C13(11)   R8        6
    C13(11)   R9        8
    C13(11)   R11       19
    C13(11)   R12       17
    C14(8)    OBJ       -8
    C14(8)    R0        5
    C14(8)    R4        9
    C14(8)    R5        11
    C14(8)    R8        19
    C14(8)    R9        12
    C14(8)    R10       10
    C14(8)    R12       13
    C14(8)    R14       15
    C15(1)    R1        1
    C16(1)    R2        1
    C17(1)    R3        1
    C18(1)    R4        1
    C19(1)    R5        1
    C20(1)    R6        1
    C21(1)    R7        1
    C22(1)    R8        1
    C23(1)    R9        1
    C24(1)    R10       1
    C25(1)    R11       1
    C26(1)    R12       1
    C27(1)    R13       1
    C28(1)    R14       1
    C29(1)    R15       1
RHS
    RHS1      R0        -353.736121673004
    RHS1      R1        92
    RHS1      R2        82
    RHS1      R3        59
    RHS1      R4        80
    RHS1      R5        59
    RHS1      R6        74
    RHS1      R7        98
    RHS1      R8        81
    RHS1      R9        68
    RHS1      R10       70
    RHS1      R11       69
    RHS1      R12       63
    RHS1      R13       86
    RHS1      R14       90
    RHS1      R15       2
BOUNDS
 UP BND1      I0(4)     2
 UP BND1      I1(3)     2
 UP BND1      I2(5)     2
 UP BND1      I3(4)     2
 UP BND1      I4(4)     2
 UP BND1      I5(4)     2
ENDATA
